c clasp version 2.1.1
c Reading from p06.cnf
c Solving...
s UNSATISFIABLE

c Models        : 0     
c Time          : 16.832s (Solving: 16.60s 1st Model: 0.00s Unsat: 16.60s)
c CPU Time      : 16.800s
c Choices       : 117220
c Conflicts     : 94497
c Restarts      : 37     (Average: 2553.95 Last: 9523)

c Variables     : 68525  (Eliminated: 20613 Frozen:    0)
c Constraints   : 59504  (Binary: 69.1% Ternary: 28.3% Other:  2.6%)
c Lemmas        : 94496  (Binary:  0.4% Ternary:  0.8% Other: 98.9%)
c   Conflict    : 94496  (Average Length: 72.5) 
c   Loop        : 0      (Average Length: 0.0) 
c   Other       : 0      (Average Length: 0.0)
c   Deleted     : 65806 
